199
68
131
523
170
1343
101
127
280
125
881
365
2169
100
505
60
45
495
3541
352
622
265
104
57
329
47
981
123
94
609
2055
801
106
2248
213
1439
243
2156
208
494
381
371
3281
65
830
106
1754
794
102
0
83
855
55
91
319
1513
100
255
280
140
855
27
62
795
1667
158
50
1068
2205
77
41
544
790
1468
1001
1574
864
288
2394
2418
1061
4752
72
188
191
83
185
79
258
1229
5889
191
570
510
34
30
1574
0
369
939
